c This is a random SAT instance with 10 variables and 20 clauses
p cnf 10 20
-6 10 7 8 6 -10 2 -5 -1 0
5 -2 7 -3 1 -9 0
4 0
-10 9 -4 7 3 5 -7 10 -1 0
-8 0
10 -9 1 -2 8 4 -6 0
1 -10 5 7 8 9 -1 -2 0
3 8 -6 9 -5 4 10 -2 0
7 0
-2 3 -1 9 -5 -9 0
3 -2 9 -8 -4 0
-5 -4 -2 -8 -7 0
-9 1 4 -10 -1 -7 -6 5 -3 0
-5 9 6 0
-8 -10 4 8 -2 5 -3 3 -9 2 0
-5 3 -4 -9 2 5 7 8 -3 0
3 -5 -8 2 -6 -2 -4 -3 -7 6 0
-1 4 3 7 10 5 -3 0
-1 10 -7 2 8 4 0
9 -1 2 -3 0